<number of tasks>
20

<cycle time>
1000

<order strength>
0,5


<task times>
1 374
2 318
3 153
4 182
5 168
6 313
7 159
8 166
9 55
10 242
11 76
12 177
13 166
14 119
15 150
16 303
17 138
18 52
19 48
20 146

<precedence relations>
1,11
2,4
2,5
2,6
3,4
3,6
3,7
4,11
5,8
5,9
5,10
6,20
7,12
7,13
7,18
8,11
9,11
10,12
10,13
11,14
11,15
11,16
11,17
11,18
13,19
15,19
15,20
17,19
17,20
18,19

<end>
